BAYES
6
2 3 2 2 2 2 
6
2 4 0   # n3
3 0 2 1   # n5
1 2 # n2
3 4 2 3   # n4
1 4  # n1
3 4 1 5  # n6


4
  0.1 0.9 
  0.9 0.1 

12
  0.3 0.6 0.1 
  0.5 0.5 0 
  0.4 0.6 0 
  0.5 0.5 0 

2
  0.3 0.7 

8
  0.4 0.6 
  0.5 0.5 
  0.5 0.5 
  1 0 

2
  0.2 0.8 

12
  0.1 0.7 
  0.4 1 
  0.2 0.8 
  0.5 0 
  0.3 0.9 
  0.6 0 


